p td 22 57
4 3
5 4
6 1
7 1
8 7
8 2
9 8
10 9
10 6
11 3
11 5
11 1
12 7
12 10
12 4
12 3
13 2
13 12
13 11
14 3
14 5
14 4
14 11
15 12
16 5
16 4
16 9
16 8
16 3
16 1
16 12
17 1
17 9
17 12
17 4
17 6
17 8
18 5
18 14
18 15
18 8
18 9
19 10
19 1
20 1
20 17
20 8
20 6
20 2
20 15
21 12
22 20
22 10
22 18
22 21
22 8
22 19
